500
500 500
1 399 123
2 399 967
3 398 281
4 397 118
5 396 38
6 395 180
7 394 912
8 393 604
9 393 868
10 391 778
11 389 760
12 389 558
13 389 533
14 389 828
15 388 783
16 387 558
17 386 402
18 385 29
19 385 824
20 384 84
21 383 145
22 383 864
23 383 264
24 383 538
25 382 286
26 381 160
27 380 289
28 380 650
29 380 878
30 380 671
31 379 729
32 379 893
33 379 186
34 379 893
35 378 144
36 377 722
37 377 615
38 376 988
39 376 385
40 376 423
41 376 617
42 376 393
43 374 954
44 371 669
45 371 877
46 371 197
47 370 887
48 370 503
49 368 875
50 368 663
51 368 378
52 366 348
53 366 581
54 365 631
55 364 185
56 363 817
57 362 690
58 361 441
59 360 317
60 359 484
61 359 3
62 358 659
63 358 895
64 357 409
65 357 214
66 357 843
67 356 925
68 355 414
69 355 10
70 355 261
71 354 626
72 352 902
73 352 843
74 352 557
75 351 571
76 351 534
77 348 756
78 348 773
79 346 888
80 345 717
81 344 139
82 344 546
83 343 795
84 338 58
85 337 673
86 336 195
87 335 798
88 335 447
89 335 954
90 334 624
91 334 326
92 334 490
93 332 6
94 330 280
95 330 837
96 330 264
97 326 782
98 326 295
99 326 350
100 325 812
101 324 752
102 324 931
103 323 156
104 323 928
105 322 431
106 320 483
107 320 434
108 318 340
109 318 687
110 317 374
111 317 733
112 317 884
113 316 220
114 314 252
115 313 539
116 311 494
117 311 653
118 311 735
119 310 690
120 309 33
121 308 320
122 307 748
123 307 531
124 307 465
125 307 596
126 306 250
127 305 320
128 304 329
129 304 152
130 302 77
131 302 914
132 302 926
133 301 41
134 301 968
135 300 43
136 300 957
137 300 322
138 300 593
139 299 845
140 299 625
141 297 662
142 295 446
143 295 960
144 294 436
145 292 482
146 291 623
147 290 658
148 289 71
149 289 941
150 289 319
151 288 71
152 287 363
153 287 693
154 286 261
155 285 679
156 283 458
157 282 800
158 282 4
159 281 756
160 281 812
161 281 966
162 280 25
163 277 58
164 277 323
165 277 42
166 277 748
167 274 881
168 274 610
169 273 59
170 273 82
171 271 155
172 271 692
173 270 764
174 269 596
175 269 301
176 269 604
177 268 292
178 268 930
179 268 434
180 267 383
181 266 478
182 264 888
183 263 940
184 263 986
185 261 485
186 261 347
187 259 188
188 259 521
189 258 369
190 257 874
191 257 863
192 256 638
193 256 744
194 256 866
195 256 737
196 255 84
197 255 351
198 254 467
199 252 872
200 252 285
201 252 711
202 250 351
203 249 988
204 249 944
205 248 153
206 248 586
207 247 564
208 247 997
209 246 919
210 244 945
211 243 758
212 243 248
213 243 306
214 243 191
215 243 469
216 242 797
217 242 296
218 241 949
219 241 572
220 241 363
221 240 19
222 239 280
223 239 373
224 238 592
225 237 233
226 237 547
227 237 118
228 236 714
229 234 645
230 234 849
231 233 636
232 229 480
233 229 172
234 229 330
235 228 264
236 228 727
237 227 964
238 227 32
239 227 506
240 225 614
241 225 659
242 224 232
243 223 76
244 222 734
245 222 250
246 222 46
247 221 159
248 221 701
249 220 104
250 219 914
251 218 968
252 217 873
253 217 955
254 216 249
255 215 54
256 215 757
257 215 776
258 213 302
259 211 308
260 211 415
261 211 198
262 210 914
263 210 91
264 209 767
265 208 925
266 208 458
267 207 401
268 206 190
269 206 689
270 206 207
271 206 584
272 205 174
273 205 739
274 204 287
275 203 751
276 203 113
277 203 410
278 202 266
279 201 180
280 201 867
281 200 187
282 198 657
283 197 499
284 197 196
285 197 521
286 196 533
287 195 646
288 195 591
289 193 301
290 193 628
291 193 981
292 193 490
293 193 564
294 193 195
295 192 785
296 192 518
297 191 775
298 190 896
299 190 454
300 190 883
301 190 887
302 189 195
303 189 438
304 187 608
305 185 559
306 184 244
307 182 248
308 181 112
309 180 854
310 179 64
311 178 342
312 175 145
313 175 23
314 173 141
315 173 979
316 171 157
317 171 442
318 170 987
319 170 426
320 170 715
321 170 833
322 169 444
323 168 267
324 167 98
325 166 996
326 166 58
327 166 990
328 166 120
329 165 102
330 164 759
331 164 169
332 164 486
333 164 292
334 163 416
335 163 993
336 162 627
337 162 761
338 161 642
339 161 678
340 160 142
341 160 972
342 160 279
343 159 112
344 159 264
345 157 774
346 157 197
347 155 114
348 155 520
349 155 19
350 154 527
351 154 868
352 153 819
353 152 842
354 152 336
355 151 106
356 150 212
357 149 683
358 149 177
359 149 697
360 149 624
361 148 908
362 147 623
363 146 548
364 146 697
365 145 515
366 145 9
367 143 320
368 143 961
369 142 420
370 141 306
371 140 972
372 140 624
373 140 180
374 139 103
375 138 931
376 137 796
377 137 608
378 136 581
379 136 64
380 134 259
381 134 485
382 134 677
383 134 610
384 133 46
385 133 262
386 132 831
387 131 152
388 131 342
389 130 608
390 130 607
391 127 249
392 127 584
393 126 602
394 126 57
395 125 390
396 124 419
397 124 239
398 123 122
399 122 7
400 120 416
401 119 983
402 117 47
403 117 999
404 117 5
405 117 431
406 116 625
407 116 606
408 116 673
409 115 725
410 115 199
411 114 353
412 114 628
413 114 225
414 114 94
415 114 627
416 113 605
417 113 128
418 112 266
419 112 726
420 111 965
421 111 274
422 110 38
423 110 546
424 110 33
425 109 179
426 109 917
427 107 812
428 106 523
429 104 683
430 104 459
431 104 294
432 104 856
433 103 216
434 103 486
435 102 698
436 102 405
437 101 98
438 101 831
439 100 157
440 96 685
441 95 109
442 95 718
443 95 9
444 94 918
445 94 738
446 93 623
447 92 303
448 91 396
449 91 887
450 89 264
451 88 190
452 87 186
453 87 463
454 86 853
455 86 194
456 86 313
457 83 616
458 83 809
459 81 769
460 79 356
461 79 596
462 78 595
463 75 352
464 75 69
465 74 731
466 74 888
467 73 435
468 73 187
469 70 140
470 70 648
471 70 715
472 68 996
473 68 585
474 68 524
475 67 63
476 66 409
477 66 421
478 66 561
479 65 428
480 65 803
481 64 250
482 61 905
483 61 702
484 61 947
485 61 37
486 61 670
487 60 211
488 59 205
489 58 534
490 58 690
491 58 637
492 56 412
493 56 595
494 56 637
495 54 57
496 53 529
497 53 996
498 53 509
499 50 479
500 50 691
